LAMMPS (2 Apr 2025)
OMP_NUM_THREADS environment is not set. Defaulting to 1 thread. (src/comm.cpp:99)
  using 1 OpenMP thread(s) per MPI task

    variable case_path string results/demo
    variable case_name string demo
    variable dmp_interval equal 5000
    variable N_restart equal 50000
    variable go_on_from_step equal 0
    variable end_step equal 1250000
    variable n_sense_each equal 2
    variable Ncallback equal 50
    variable soft equal 6e-10
    variable k1_self equal 0.0
    variable k2_self equal 18
    variable Dt equal 2e-05

variable kA equal 1.6e-08
variable    plug_path getenv LMP_PLUGIN_RELEASE_PATH
plugin load     ${plug_path}/rhonorm_plugin.so ${plug_path}/inflow_plugin.so                 ${plug_path}/setrho_plugin.so ${plug_path}/avechunk_plugin.so                 ${plug_path}/angle_concave_plugin.so
plugin load     /data/software/lammps-2Apr2025/src_jsm/build_release/rhonorm_plugin.so ${plug_path}/inflow_plugin.so                 ${plug_path}/setrho_plugin.so ${plug_path}/avechunk_plugin.so                 ${plug_path}/angle_concave_plugin.so
plugin load     /data/software/lammps-2Apr2025/src_jsm/build_release/rhonorm_plugin.so /data/software/lammps-2Apr2025/src_jsm/build_release/inflow_plugin.so                 ${plug_path}/setrho_plugin.so ${plug_path}/avechunk_plugin.so                 ${plug_path}/angle_concave_plugin.so
plugin load     /data/software/lammps-2Apr2025/src_jsm/build_release/rhonorm_plugin.so /data/software/lammps-2Apr2025/src_jsm/build_release/inflow_plugin.so                 /data/software/lammps-2Apr2025/src_jsm/build_release/setrho_plugin.so ${plug_path}/avechunk_plugin.so                 ${plug_path}/angle_concave_plugin.so
plugin load     /data/software/lammps-2Apr2025/src_jsm/build_release/rhonorm_plugin.so /data/software/lammps-2Apr2025/src_jsm/build_release/inflow_plugin.so                 /data/software/lammps-2Apr2025/src_jsm/build_release/setrho_plugin.so /data/software/lammps-2Apr2025/src_jsm/build_release/avechunk_plugin.so                 ${plug_path}/angle_concave_plugin.so
plugin load     /data/software/lammps-2Apr2025/src_jsm/build_release/rhonorm_plugin.so /data/software/lammps-2Apr2025/src_jsm/build_release/inflow_plugin.so                 /data/software/lammps-2Apr2025/src_jsm/build_release/setrho_plugin.so /data/software/lammps-2Apr2025/src_jsm/build_release/avechunk_plugin.so                 /data/software/lammps-2Apr2025/src_jsm/build_release/angle_concave_plugin.so
Loading plugin: Density normalization pair style v1.0 by Jasmine Feng
Loading plugin: Moving least square pair style v1.0 by Jasmine Feng
Loading plugin: Inflow BC modified from fix deposit v1.0 by Jasmine Feng
Loading plugin: Fix setrho following fix setforce v1.0 by Jasmine Feng
Loading plugin: fix ave/chunk during pre_force v1.0 by Jasmine Feng
Loading plugin: theta range is [0, 2*PI] by Jasmine Feng

dimension	3
atom_style	hybrid bond angle rheo
units		si
newton	 	on
boundary	f f f

variable    cur_path getenv MY_WORK

        read_restart create_geometry/data/equip-si-bond2_angle-rheo-krebs-28w.restart
Reading restart file ...
  restart file = 2 Apr 2025, LAMMPS = 2 Apr 2025
WARNING: Restart file used different # of processors: 24 vs. 1 (src/read_restart.cpp:629)
  restoring atom style hybrid from restart
  orthogonal box = (-0.01198 -0.00598 -0.00598) to (0.05178 0.00598 0.01198)
  1 by 1 by 1 MPI processor grid
  pair style hybrid/overlay stores no restart info
  restoring bond style bpm/spring from restart
  restoring angle style harmonic/concave from restart
  122137 atoms
  25263 bonds
  12600 angles
Finding 1-2 1-3 1-4 neighbors ...
  special bond factors lj:    0        1        1       
  special bond factors coul:  0        1        1       
     4 = max # of 1-2 neighbors
    24 = max # of special neighbors
  special bonds CPU = 0.015 seconds
  read_restart CPU = 0.051 seconds
        reset_timestep 0
    
# variable        plug_path getenv LMP_PLUGIN_RELEASE_PATH
# plugin load     ${plug_path}/rhonorm_plugin.so ${plug_path}/setrho_plugin.so

# dimension	3
# atom_style	hybrid rheo bond
# units		si
# newton	 	on
# boundary	f f f

# variable          cur_path getenv MY_WORK
# #  ===================================================
# read_restart ${cur_path}/create_geometry/data/equip-si-bond_angle-rheo-resetrho-soft4e-10-krebs-kself0.006-30w.restart

# set parameters ======================
# geometry params
variable    dL	        equal 2e-4
variable    n_yz        equal 63
variable    n_ring      equal 200
variable    n_inlet     equal 3870
variable    r_si        equal 0.002
variable    r_catheter  equal ${r_si}
variable    r_catheter  equal 0.002
variable    r_torus     equal ${r_catheter}*2
variable    r_torus     equal 0.002*2
variable    l_pipe_vert equal 0.004
variable    l_pipe_hrz  equal 0.002
variable    l_si        equal 0.04-${dL}
variable    l_si        equal 0.04-0.0002
 # surface area of each wall particle
variable    A0          equal 2*PI*${r_si}*${l_si}/(${n_yz}*${n_ring})
variable    A0          equal 2*PI*0.002*${l_si}/(${n_yz}*${n_ring})
variable    A0          equal 2*PI*0.002*0.0398/(${n_yz}*${n_ring})
variable    A0          equal 2*PI*0.002*0.0398/(63*${n_ring})
variable    A0          equal 2*PI*0.002*0.0398/(63*200)
# simulation params
variable    cut	        equal 1.6*${dL}
variable    cut	        equal 1.6*0.0002
variable    skin        equal 0.3*${cut}
variable    skin        equal 0.3*0.00032
variable    c	        equal 5
variable    rho	        equal 993
variable    Ninflow     equal 10
# variable    Dt          equal 2e-5
# variable    mu          equal 1e-3 # dynamic viscosity
variable    zeta        equal 0.5  # artificial viscosity
variable    kB1         equal 0.25 # circumferential
variable    kB2         equal 0.5 # longitudinal
variable    theta_eq    equal 180*(${n_yz}-2)/${n_yz}
variable    theta_eq    equal 180*(63-2)/${n_yz}
variable    theta_eq    equal 180*(63-2)/63
variable    rc_solid    equal ${dL}*1.0
variable    rc_solid    equal 0.0002*1.0
variable    wall_damp   equal 1e-4
# variable    k_self      equal 6e-3

group       equipment   type 1
7740 atoms in group equipment
group       wall        type 2
12600 atoms in group wall
group       fluid       type 3
101797 atoms in group fluid

set         group equipment rheo/status 1
Setting atom values ...
  7740 settings made for rheo/status
set         group wall rheo/status 1
Setting atom values ...
  12600 settings made for rheo/status
set         group fluid rheo/status 0
Setting atom values ...
  101797 settings made for rheo/status

# region specification ================
region      inlet block EDGE 0 EDGE EDGE EDGE EDGE  # the whole inlet
region      outlet_del cylinder             z $(v_l_si+v_r_torus+v_l_pipe_hrz) 0 ${r_catheter} $(v_r_torus+v_l_pipe_vert*0.885) EDGE
region      outlet_del cylinder             z 0.045800000000000007372 0 ${r_catheter} $(v_r_torus+v_l_pipe_vert*0.885) EDGE
region      outlet_del cylinder             z 0.045800000000000007372 0 0.002 $(v_r_torus+v_l_pipe_vert*0.885) EDGE
region      outlet_del cylinder             z 0.045800000000000007372 0 0.002 0.0075399999999999998274 EDGE
region      outlet block ${l_si} $(v_l_si+v_l_pipe_hrz+v_r_torus+v_r_si)             -${r_si} ${r_si} -${r_si} $(v_r_torus+v_l_pipe_vert) # the whole outlet
region      outlet block 0.0398 $(v_l_si+v_l_pipe_hrz+v_r_torus+v_r_si)             -${r_si} ${r_si} -${r_si} $(v_r_torus+v_l_pipe_vert) 
region      outlet block 0.0398 0.047800000000000009148             -${r_si} ${r_si} -${r_si} $(v_r_torus+v_l_pipe_vert) 
region      outlet block 0.0398 0.047800000000000009148             -0.002 ${r_si} -${r_si} $(v_r_torus+v_l_pipe_vert) 
region      outlet block 0.0398 0.047800000000000009148             -0.002 0.002 -${r_si} $(v_r_torus+v_l_pipe_vert) 
region      outlet block 0.0398 0.047800000000000009148             -0.002 0.002 -0.002 $(v_r_torus+v_l_pipe_vert) 
region      outlet block 0.0398 0.047800000000000009148             -0.002 0.002 -0.002 0.0080000000000000001665 
region      lumen cylinder x 0 0 ${r_si} 0 ${l_si}
region      lumen cylinder x 0 0 0.002 0 ${l_si}
region      lumen cylinder x 0 0 0.002 0 0.0398
region      inlet_del cylinder             z $(-v_r_torus-v_l_pipe_hrz) 0 ${r_catheter} $(v_r_torus+v_l_pipe_vert*0.885) EDGE
region      inlet_del cylinder             z -0.0060000000000000001249 0 ${r_catheter} $(v_r_torus+v_l_pipe_vert*0.885) EDGE
region      inlet_del cylinder             z -0.0060000000000000001249 0 0.002 $(v_r_torus+v_l_pipe_vert*0.885) EDGE
region      inlet_del cylinder             z -0.0060000000000000001249 0 0.002 0.0075399999999999998274 EDGE
region      simulation_box block $(xlo) $(xhi) $(ylo) $(yhi) $(zlo) $(zhi)
region      simulation_box block -0.011980000000000001065 $(xhi) $(ylo) $(yhi) $(zlo) $(zhi)
region      simulation_box block -0.011980000000000001065 0.051780000000000006577 $(ylo) $(yhi) $(zlo) $(zhi)
region      simulation_box block -0.011980000000000001065 0.051780000000000006577 -0.0059800000000000000724 $(yhi) $(zlo) $(zhi)
region      simulation_box block -0.011980000000000001065 0.051780000000000006577 -0.0059800000000000000724 0.0059800000000000000724 $(zlo) $(zhi)
region      simulation_box block -0.011980000000000001065 0.051780000000000006577 -0.0059800000000000000724 0.0059800000000000000724 -0.0059800000000000000724 $(zhi)
region      simulation_box block -0.011980000000000001065 0.051780000000000006577 -0.0059800000000000000724 0.0059800000000000000724 -0.0059800000000000000724 0.011980000000000001065
# region      fixedrho block $(-v_l_pipe_hrz) $(v_l_si+v_l_pipe_hrz) EDGE EDGE EDGE EDGE side out
region      updaterho block $(-v_l_pipe_hrz) $(v_l_si+v_l_pipe_hrz) EDGE EDGE EDGE EDGE
region      updaterho block -0.0020000000000000000416 $(v_l_si+v_l_pipe_hrz) EDGE EDGE EDGE EDGE
region      updaterho block -0.0020000000000000000416 0.041800000000000003819 EDGE EDGE EDGE EDGE
region      drop_mol_in cylinder             z $(-v_r_torus-v_l_pipe_hrz) 0 1e-20 $(v_r_torus+v_l_pipe_vert*0.7) $(v_r_torus+v_l_pipe_vert*0.88)
region      drop_mol_in cylinder             z -0.0060000000000000001249 0 1e-20 $(v_r_torus+v_l_pipe_vert*0.7) $(v_r_torus+v_l_pipe_vert*0.88)
region      drop_mol_in cylinder             z -0.0060000000000000001249 0 1e-20 0.0068000000000000004885 $(v_r_torus+v_l_pipe_vert*0.88)
region      drop_mol_in cylinder             z -0.0060000000000000001249 0 1e-20 0.0068000000000000004885 0.0075200000000000006423
region      drop_mol_out cylinder             z $(v_l_si+v_r_torus+v_l_pipe_hrz) 0 1e-20 $(v_r_torus+v_l_pipe_vert*0.7) $(v_r_torus+v_l_pipe_vert*0.88)
region      drop_mol_out cylinder             z 0.045800000000000007372 0 1e-20 $(v_r_torus+v_l_pipe_vert*0.7) $(v_r_torus+v_l_pipe_vert*0.88)
region      drop_mol_out cylinder             z 0.045800000000000007372 0 1e-20 0.0068000000000000004885 $(v_r_torus+v_l_pipe_vert*0.88)
region      drop_mol_out cylinder             z 0.045800000000000007372 0 1e-20 0.0068000000000000004885 0.0075200000000000006423
# inflow bc
# fully-developed inflow
molecule    mymol  ${cur_path}/create_geometry/data/layer0.mol ${cur_path}/create_geometry/data/layer1.mol                    ${cur_path}/create_geometry/data/layer2.mol ${cur_path}/create_geometry/data/layer3.mol                    ${cur_path}/create_geometry/data/layer4.mol ${cur_path}/create_geometry/data/layer5.mol                    ${cur_path}/create_geometry/data/layer6.mol ${cur_path}/create_geometry/data/layer7.mol                    ${cur_path}/create_geometry/data/layer8.mol ${cur_path}/create_geometry/data/layer9.mol
molecule    mymol  /data/zhuhong_codes/EntericNervousSystem/my_work/create_geometry/data/layer0.mol ${cur_path}/create_geometry/data/layer1.mol                    ${cur_path}/create_geometry/data/layer2.mol ${cur_path}/create_geometry/data/layer3.mol                    ${cur_path}/create_geometry/data/layer4.mol ${cur_path}/create_geometry/data/layer5.mol                    ${cur_path}/create_geometry/data/layer6.mol ${cur_path}/create_geometry/data/layer7.mol                    ${cur_path}/create_geometry/data/layer8.mol ${cur_path}/create_geometry/data/layer9.mol
molecule    mymol  /data/zhuhong_codes/EntericNervousSystem/my_work/create_geometry/data/layer0.mol /data/zhuhong_codes/EntericNervousSystem/my_work/create_geometry/data/layer1.mol                    ${cur_path}/create_geometry/data/layer2.mol ${cur_path}/create_geometry/data/layer3.mol                    ${cur_path}/create_geometry/data/layer4.mol ${cur_path}/create_geometry/data/layer5.mol                    ${cur_path}/create_geometry/data/layer6.mol ${cur_path}/create_geometry/data/layer7.mol                    ${cur_path}/create_geometry/data/layer8.mol ${cur_path}/create_geometry/data/layer9.mol
molecule    mymol  /data/zhuhong_codes/EntericNervousSystem/my_work/create_geometry/data/layer0.mol /data/zhuhong_codes/EntericNervousSystem/my_work/create_geometry/data/layer1.mol                    /data/zhuhong_codes/EntericNervousSystem/my_work/create_geometry/data/layer2.mol ${cur_path}/create_geometry/data/layer3.mol                    ${cur_path}/create_geometry/data/layer4.mol ${cur_path}/create_geometry/data/layer5.mol                    ${cur_path}/create_geometry/data/layer6.mol ${cur_path}/create_geometry/data/layer7.mol                    ${cur_path}/create_geometry/data/layer8.mol ${cur_path}/create_geometry/data/layer9.mol
molecule    mymol  /data/zhuhong_codes/EntericNervousSystem/my_work/create_geometry/data/layer0.mol /data/zhuhong_codes/EntericNervousSystem/my_work/create_geometry/data/layer1.mol                    /data/zhuhong_codes/EntericNervousSystem/my_work/create_geometry/data/layer2.mol /data/zhuhong_codes/EntericNervousSystem/my_work/create_geometry/data/layer3.mol                    ${cur_path}/create_geometry/data/layer4.mol ${cur_path}/create_geometry/data/layer5.mol                    ${cur_path}/create_geometry/data/layer6.mol ${cur_path}/create_geometry/data/layer7.mol                    ${cur_path}/create_geometry/data/layer8.mol ${cur_path}/create_geometry/data/layer9.mol
molecule    mymol  /data/zhuhong_codes/EntericNervousSystem/my_work/create_geometry/data/layer0.mol /data/zhuhong_codes/EntericNervousSystem/my_work/create_geometry/data/layer1.mol                    /data/zhuhong_codes/EntericNervousSystem/my_work/create_geometry/data/layer2.mol /data/zhuhong_codes/EntericNervousSystem/my_work/create_geometry/data/layer3.mol                    /data/zhuhong_codes/EntericNervousSystem/my_work/create_geometry/data/layer4.mol ${cur_path}/create_geometry/data/layer5.mol                    ${cur_path}/create_geometry/data/layer6.mol ${cur_path}/create_geometry/data/layer7.mol                    ${cur_path}/create_geometry/data/layer8.mol ${cur_path}/create_geometry/data/layer9.mol
molecule    mymol  /data/zhuhong_codes/EntericNervousSystem/my_work/create_geometry/data/layer0.mol /data/zhuhong_codes/EntericNervousSystem/my_work/create_geometry/data/layer1.mol                    /data/zhuhong_codes/EntericNervousSystem/my_work/create_geometry/data/layer2.mol /data/zhuhong_codes/EntericNervousSystem/my_work/create_geometry/data/layer3.mol                    /data/zhuhong_codes/EntericNervousSystem/my_work/create_geometry/data/layer4.mol /data/zhuhong_codes/EntericNervousSystem/my_work/create_geometry/data/layer5.mol                    ${cur_path}/create_geometry/data/layer6.mol ${cur_path}/create_geometry/data/layer7.mol                    ${cur_path}/create_geometry/data/layer8.mol ${cur_path}/create_geometry/data/layer9.mol
molecule    mymol  /data/zhuhong_codes/EntericNervousSystem/my_work/create_geometry/data/layer0.mol /data/zhuhong_codes/EntericNervousSystem/my_work/create_geometry/data/layer1.mol                    /data/zhuhong_codes/EntericNervousSystem/my_work/create_geometry/data/layer2.mol /data/zhuhong_codes/EntericNervousSystem/my_work/create_geometry/data/layer3.mol                    /data/zhuhong_codes/EntericNervousSystem/my_work/create_geometry/data/layer4.mol /data/zhuhong_codes/EntericNervousSystem/my_work/create_geometry/data/layer5.mol                    /data/zhuhong_codes/EntericNervousSystem/my_work/create_geometry/data/layer6.mol ${cur_path}/create_geometry/data/layer7.mol                    ${cur_path}/create_geometry/data/layer8.mol ${cur_path}/create_geometry/data/layer9.mol
molecule    mymol  /data/zhuhong_codes/EntericNervousSystem/my_work/create_geometry/data/layer0.mol /data/zhuhong_codes/EntericNervousSystem/my_work/create_geometry/data/layer1.mol                    /data/zhuhong_codes/EntericNervousSystem/my_work/create_geometry/data/layer2.mol /data/zhuhong_codes/EntericNervousSystem/my_work/create_geometry/data/layer3.mol                    /data/zhuhong_codes/EntericNervousSystem/my_work/create_geometry/data/layer4.mol /data/zhuhong_codes/EntericNervousSystem/my_work/create_geometry/data/layer5.mol                    /data/zhuhong_codes/EntericNervousSystem/my_work/create_geometry/data/layer6.mol /data/zhuhong_codes/EntericNervousSystem/my_work/create_geometry/data/layer7.mol                    ${cur_path}/create_geometry/data/layer8.mol ${cur_path}/create_geometry/data/layer9.mol
molecule    mymol  /data/zhuhong_codes/EntericNervousSystem/my_work/create_geometry/data/layer0.mol /data/zhuhong_codes/EntericNervousSystem/my_work/create_geometry/data/layer1.mol                    /data/zhuhong_codes/EntericNervousSystem/my_work/create_geometry/data/layer2.mol /data/zhuhong_codes/EntericNervousSystem/my_work/create_geometry/data/layer3.mol                    /data/zhuhong_codes/EntericNervousSystem/my_work/create_geometry/data/layer4.mol /data/zhuhong_codes/EntericNervousSystem/my_work/create_geometry/data/layer5.mol                    /data/zhuhong_codes/EntericNervousSystem/my_work/create_geometry/data/layer6.mol /data/zhuhong_codes/EntericNervousSystem/my_work/create_geometry/data/layer7.mol                    /data/zhuhong_codes/EntericNervousSystem/my_work/create_geometry/data/layer8.mol ${cur_path}/create_geometry/data/layer9.mol
molecule    mymol  /data/zhuhong_codes/EntericNervousSystem/my_work/create_geometry/data/layer0.mol /data/zhuhong_codes/EntericNervousSystem/my_work/create_geometry/data/layer1.mol                    /data/zhuhong_codes/EntericNervousSystem/my_work/create_geometry/data/layer2.mol /data/zhuhong_codes/EntericNervousSystem/my_work/create_geometry/data/layer3.mol                    /data/zhuhong_codes/EntericNervousSystem/my_work/create_geometry/data/layer4.mol /data/zhuhong_codes/EntericNervousSystem/my_work/create_geometry/data/layer5.mol                    /data/zhuhong_codes/EntericNervousSystem/my_work/create_geometry/data/layer6.mol /data/zhuhong_codes/EntericNervousSystem/my_work/create_geometry/data/layer7.mol                    /data/zhuhong_codes/EntericNervousSystem/my_work/create_geometry/data/layer8.mol /data/zhuhong_codes/EntericNervousSystem/my_work/create_geometry/data/layer9.mol
Read molecule template mymol:
# layer 0, radius=0.0
  1 molecules
  0 fragments
  1 atoms with max type 3
  0 bonds with max type 0
  0 angles with max type 0
  0 dihedrals with max type 0
  0 impropers with max type 0
Read molecule template mymol:
# layer 1, radius=0.0002
  1 molecules
  0 fragments
  6 atoms with max type 3
  0 bonds with max type 0
  0 angles with max type 0
  0 dihedrals with max type 0
  0 impropers with max type 0
Read molecule template mymol:
# layer 2, radius=0.0004
  1 molecules
  0 fragments
  12 atoms with max type 3
  0 bonds with max type 0
  0 angles with max type 0
  0 dihedrals with max type 0
  0 impropers with max type 0
Read molecule template mymol:
# layer 3, radius=0.0006000000000000001
  1 molecules
  0 fragments
  19 atoms with max type 3
  0 bonds with max type 0
  0 angles with max type 0
  0 dihedrals with max type 0
  0 impropers with max type 0
Read molecule template mymol:
# layer 4, radius=0.0008
  1 molecules
  0 fragments
  25 atoms with max type 3
  0 bonds with max type 0
  0 angles with max type 0
  0 dihedrals with max type 0
  0 impropers with max type 0
Read molecule template mymol:
# layer 5, radius=0.001
  1 molecules
  0 fragments
  31 atoms with max type 3
  0 bonds with max type 0
  0 angles with max type 0
  0 dihedrals with max type 0
  0 impropers with max type 0
Read molecule template mymol:
# layer 6, radius=0.0012000000000000001
  1 molecules
  0 fragments
  38 atoms with max type 3
  0 bonds with max type 0
  0 angles with max type 0
  0 dihedrals with max type 0
  0 impropers with max type 0
Read molecule template mymol:
# layer 7, radius=0.0014
  1 molecules
  0 fragments
  44 atoms with max type 3
  0 bonds with max type 0
  0 angles with max type 0
  0 dihedrals with max type 0
  0 impropers with max type 0
Read molecule template mymol:
# layer 8, radius=0.0016
  1 molecules
  0 fragments
  50 atoms with max type 3
  0 bonds with max type 0
  0 angles with max type 0
  0 dihedrals with max type 0
  0 impropers with max type 0
Read molecule template mymol:
# layer 9, radius=0.0018000000000000002
  1 molecules
  0 fragments
  57 atoms with max type 3
  0 bonds with max type 0
  0 angles with max type 0
  0 dihedrals with max type 0
  0 impropers with max type 0
fix         in_depos fluid rheo/deposit 130000 0 ${Ninflow} 623 region drop_mol_in near ${dL}             vx 0 0 vy 0 0 vz 0 0 rho ${rho} status 0 mol mymol orient 0 0 1             molfrac 0.13986014 0.13846154 0.13426573 0.12727273 0.11748252 0.1048951                     0.08951049 0.07132867 0.05034965 0.02657343
fix         in_depos fluid rheo/deposit 130000 0 10 623 region drop_mol_in near ${dL}             vx 0 0 vy 0 0 vz 0 0 rho ${rho} status 0 mol mymol orient 0 0 1             molfrac 0.13986014 0.13846154 0.13426573 0.12727273 0.11748252 0.1048951                     0.08951049 0.07132867 0.05034965 0.02657343
fix         in_depos fluid rheo/deposit 130000 0 10 623 region drop_mol_in near 0.0002             vx 0 0 vy 0 0 vz 0 0 rho ${rho} status 0 mol mymol orient 0 0 1             molfrac 0.13986014 0.13846154 0.13426573 0.12727273 0.11748252 0.1048951                     0.08951049 0.07132867 0.05034965 0.02657343
fix         in_depos fluid rheo/deposit 130000 0 10 623 region drop_mol_in near 0.0002             vx 0 0 vy 0 0 vz 0 0 rho 993 status 0 mol mymol orient 0 0 1             molfrac 0.13986014 0.13846154 0.13426573 0.12727273 0.11748252 0.1048951                     0.08951049 0.07132867 0.05034965 0.02657343
fix         out_depos fluid rheo/deposit 130000 0 ${Ninflow} 623 region drop_mol_out near ${dL}             vx 0 0 vy 0 0 vz 0 0 rho ${rho} status 0 mol mymol orient 0 0 1             molfrac 0.13986014 0.13846154 0.13426573 0.12727273 0.11748252 0.1048951                     0.08951049 0.07132867 0.05034965 0.02657343
fix         out_depos fluid rheo/deposit 130000 0 10 623 region drop_mol_out near ${dL}             vx 0 0 vy 0 0 vz 0 0 rho ${rho} status 0 mol mymol orient 0 0 1             molfrac 0.13986014 0.13846154 0.13426573 0.12727273 0.11748252 0.1048951                     0.08951049 0.07132867 0.05034965 0.02657343
fix         out_depos fluid rheo/deposit 130000 0 10 623 region drop_mol_out near 0.0002             vx 0 0 vy 0 0 vz 0 0 rho ${rho} status 0 mol mymol orient 0 0 1             molfrac 0.13986014 0.13846154 0.13426573 0.12727273 0.11748252 0.1048951                     0.08951049 0.07132867 0.05034965 0.02657343
fix         out_depos fluid rheo/deposit 130000 0 10 623 region drop_mol_out near 0.0002             vx 0 0 vy 0 0 vz 0 0 rho 993 status 0 mol mymol orient 0 0 1             molfrac 0.13986014 0.13846154 0.13426573 0.12727273 0.11748252 0.1048951                     0.08951049 0.07132867 0.05034965 0.02657343
# outflow bc (evaporate)
fix         in_del fluid evaporate 100 10000 inlet_del 2332
fix         out_del fluid evaporate 100 10000 outlet_del 2332
# forces ==============================
# set pairs and bonds
pair_style  hybrid/overlay sph/rhosum/norm 2                            rheo ${cut} artificial/visc ${zeta}                            soft ${dL}                         #    rheo/solid
pair_style  hybrid/overlay sph/rhosum/norm 2                            rheo 0.00032 artificial/visc ${zeta}                            soft ${dL}                         
pair_style  hybrid/overlay sph/rhosum/norm 2                            rheo 0.00032 artificial/visc 0.5                            soft ${dL}                         
pair_style  hybrid/overlay sph/rhosum/norm 2                            rheo 0.00032 artificial/visc 0.5                            soft 0.0002                         
pair_coeff  * * rheo
# pair_coeff  1*2 2 rheo/solid ${kB2} ${rc_solid} ${wall_damp}
pair_coeff  3 3 sph/rhosum/norm ${cut}
pair_coeff  3 3 sph/rhosum/norm 0.00032
pair_coeff  1*2 3 soft ${soft}
pair_coeff  1*2 3 soft 6e-10

special_bonds      lj 0 1 1 coul 0 1 1
bond_style         bpm/spring break no smooth no
Resetting peratom fix info from restart file:
  fix style: property/atom, fix ID: HISTORY_BPM_SPRING_FIX_PROP_ATOM
Resetting global fix info from restart file:
  fix style: BOND_HISTORY, fix ID: HISTORY_BPM_SPRING
bond_coeff         1 ${kB1} 1.0 ${wall_damp}
bond_coeff         1 0.25 1.0 ${wall_damp}
bond_coeff         1 0.25 1.0 0.0001
bond_coeff         2 ${kB2} 1.0 ${wall_damp}
bond_coeff         2 0.5 1.0 ${wall_damp}
bond_coeff         2 0.5 1.0 0.0001

angle_style harmonic/concave
angle_coeff 1 ${kA} ${theta_eq} x ${n_yz}
angle_coeff 1 1.6e-08 ${theta_eq} x ${n_yz}
angle_coeff 1 1.6e-08 174.285714285714 x ${n_yz}
angle_coeff 1 1.6e-08 174.285714285714 x 63

fix     rheo all rheo ${cut} quintic 0 density ${rho} ${rho} ${rho} speed/sound $c $c $c         fixed/vel 1 0 0
fix     rheo all rheo 0.00032 quintic 0 density ${rho} ${rho} ${rho} speed/sound $c $c $c         fixed/vel 1 0 0
fix     rheo all rheo 0.00032 quintic 0 density 993 ${rho} ${rho} speed/sound $c $c $c         fixed/vel 1 0 0
fix     rheo all rheo 0.00032 quintic 0 density 993 993 ${rho} speed/sound $c $c $c         fixed/vel 1 0 0
fix     rheo all rheo 0.00032 quintic 0 density 993 993 993 speed/sound $c $c $c         fixed/vel 1 0 0
fix     rheo all rheo 0.00032 quintic 0 density 993 993 993 speed/sound 5 $c $c         fixed/vel 1 0 0
fix     rheo all rheo 0.00032 quintic 0 density 993 993 993 speed/sound 5 5 $c         fixed/vel 1 0 0
fix     rheo all rheo 0.00032 quintic 0 density 993 993 993 speed/sound 5 5 5         fixed/vel 1 0 0
        # fixed/rho/region fixedrho
# fix     visc all rheo/viscosity * constant ${mu}
fix     press all rheo/pressure * tait/water
# set the force of fluid
fix     G_fluid fluid gravity -9.81 vector 0 0 1
fix     G_wall wall gravity -9.81 vector 0 0 1
# self-spring
fix     y0 wall store/state 0 y
Resetting peratom fix info from restart file:
  fix style: store/state, fix ID: y0
fix     z0 wall store/state 0 z
Resetting peratom fix info from restart file:
  fix style: store/state, fix ID: z0
# nonlinear restoring force
variable  Dy atom (f_y0-y)*gmask(wall)
variable  Dz atom (f_z0-z)*gmask(wall)
variable  FRy atom (2*(v_Dy>0)-1)*((abs(v_Dy)*${k1_self}+abs(v_Dy)^2*${k2_self}))
variable  FRy atom (2*(v_Dy>0)-1)*((abs(v_Dy)*0+abs(v_Dy)^2*${k2_self}))
variable  FRy atom (2*(v_Dy>0)-1)*((abs(v_Dy)*0+abs(v_Dy)^2*18))
variable  FRz atom (2*(v_Dz>0)-1)*((abs(v_Dz)*${k1_self}+abs(v_Dz)^2*${k2_self}))
variable  FRz atom (2*(v_Dz>0)-1)*((abs(v_Dz)*0+abs(v_Dz)^2*${k2_self}))
variable  FRz atom (2*(v_Dz>0)-1)*((abs(v_Dz)*0+abs(v_Dz)^2*18))
fix       FR wall addforce 0 v_FRy v_FRz
# bath
variable  ringID atom ceil((id-v_n_inlet)/v_n_yz)
compute   ringID wall chunk/atom v_ringID nchunk once ids once
compute   yz wall property/atom y z
fix       yzAvg wall ave/chunk/preforce 1 1 1 ringID c_yz[1] c_yz[2]
compute   yzAvg wall chunk/spread/atom ringID f_yzAvg[2] f_yzAvg[3]
variable  y_yc  atom y-c_yzAvg[1]
variable  z_zc  atom z-c_yzAvg[2]
variable  rc    atom sqrt(v_y_yc^2+v_z_zc^2)
variable  Fbath atom ${A0}*${rho}*9.81*(${r_torus}-z)*gmask(wall)
variable  Fbath atom 3.96937738453568e-08*${rho}*9.81*(${r_torus}-z)*gmask(wall)
variable  Fbath atom 3.96937738453568e-08*993*9.81*(${r_torus}-z)*gmask(wall)
variable  Fbath atom 3.96937738453568e-08*993*9.81*(0.004-z)*gmask(wall)
variable  Fy_bath atom -v_Fbath*v_y_yc/(v_rc+1e-30)
variable  Fz_bath atom -v_Fbath*v_z_zc/(v_rc+1e-30)
fix       F_bath wall addforce 0 v_Fy_bath v_Fz_bath
# zero xforce of wall
fix       xforce0  wall setforce 0. NULL NULL
# fix the pressure of the vert pipe and torus
# variable  p0 atom ${rho}*9.81*(${r_torus}+${l_pipe_vert}*0.9-z)
# variable  rho0 atom (7*v_p0/($c^2*${rho})+1)^(1/7)*${rho}
# fix       fixedrho fluid setrho v_rho0 region fixedrho
# active force
fix       F_active wall external pf/callback ${Ncallback} 1
fix       F_active wall external pf/callback 50 1
# balance ========================
comm_style tiled
fix       bl all balance 10000 1.01 rcb
# Diagnostics ====================
# density and pressure
compute     rho all rheo/property/atom rho
compute     p all rheo/property/atom pressure
compute     rhomin fluid reduce/region updaterho min c_rho
compute     rhomax fluid reduce/region updaterho max c_rho
compute     fsph all rheo/property/atom fsph/y fsph/z
compute     fbond all rheo/property/atom fbpm/y fbpm/z
compute     visc all rheo/property/atom viscosity

# inflow and outflow rates
variable    n_inflow    equal f_in_del+count(fluid,inlet)-f_in_depos
variable    n_outflow   equal f_out_del+count(fluid,outlet)-f_out_depos

# wall strain
variable    strain atom (v_rc-v_r_si)/v_r_si*gmask(wall)
fix         strainAvg wall ave/chunk/preforce 1 ${Ncallback} ${Ncallback} ringID v_strain
fix         strainAvg wall ave/chunk/preforce 1 50 ${Ncallback} ringID v_strain
fix         strainAvg wall ave/chunk/preforce 1 50 50 ringID v_strain
compute     strainAvg wall chunk/spread/atom ringID f_strainAvg[2]
compute     strainMin wall reduce  min c_strainAvg
compute     strainMax wall reduce  max c_strainAvg
# output =================================
# global output
thermo	      20
thermo_style	custom step time press atoms c_rhomin c_rhomax f_in_del f_out_del f_in_depos f_out_depos
thermo_modify	norm no

# dump per-atom output (moved to neuron_fluid_get_dump.py)

# dump	my_dump all custom ${dmp_interval} #         ${case_path}/${go_on_from_step}to${end_step}.dump #         id type x y z vx vy vz fx fy fz mass c_p c_rho c_strainAvg c_ringID #         v_Fy_bath v_Fz_bath v_FRy v_FRz f_F_active[2] f_F_active[3] c_fsph[1] c_fsph[2]
# dump_modify my_dump format float %.6e

# RUN ==========================
timestep    ${Dt}
timestep    2e-05
neighbor    ${skin} bin
neighbor    9.6e-05 bin
restart     ${N_restart} ${case_path}/restart/*.restart
restart     50000 ${case_path}/restart/*.restart
restart     50000 results/demo/restart/*.restart
log         ${case_path}/log_${go_on_from_step}to${end_step}.lammps
log         results/demo/log_${go_on_from_step}to${end_step}.lammps
log         results/demo/log_0to${end_step}.lammps
log         results/demo/log_0to1250000.lammps
